networks/rf_174_4492/rf_174_4492-lower.txt
Number of groups: 75
Flow 1: {3 1 0} {1 4 0} {4 91 0} 
Flow 2: {1 5 0} {5 92 0} 
Flow 3: {1 6 0} {6 93 0} 
Flow 4: {1 7 0} {7 94 0} 
Flow 5: {1 8 0} {8 95 0} 
Flow 6: {1 11 0} {11 98 0} 
Flow 7: {4 40 0} {40 13 0} {13 100 0} 
Flow 8: {13 15 0} {15 102 0} 
Flow 9: {40 24 0} {24 21 0} {21 108 0} 
Flow 10: {4 43 0} {43 41 0} {41 29 0} {29 116 0} 
Flow 11: {1 10 0} {10 35 0} {35 122 0} 
Flow 12: {43 38 0} {38 125 0} 
Flow 13: {40 28 0} {28 39 0} {39 126 0} 
Flow 14: {40 127 0} 
Flow 15: {1 9 0} {9 67 0} {67 45 0} {45 132 0} 
Flow 16: {40 36 0} {36 53 0} {53 140 0} 
Flow 17: {53 54 0} {54 141 0} 
Flow 18: {9 58 0} {58 145 0} 
Flow 19: {58 59 0} {59 146 0} 
Flow 20: {13 12 0} {12 14 0} {14 61 0} {61 148 0} 
Flow 21: {13 16 0} {16 62 0} {62 149 0} 
Flow 22: {4 81 0} {81 66 0} {66 65 0} {65 152 0} 
Flow 23: {66 153 0} 
Flow 24: {54 57 0} {57 68 0} {68 155 0} 
Flow 25: {58 46 0} {46 71 0} {71 158 0} 
Flow 26: {9 72 0} {72 159 0} 
Flow 27: {9 75 0} {75 162 0} 
Flow 28: {46 77 0} {77 164 0} 
Flow 29: {7 79 0} {79 166 0} 
Flow 30: {29 80 0} {80 83 0} {83 170 0} 
Flow 31: {46 78 0} {78 84 0} {84 171 0} 
Flow 32: {28 23 0} {23 85 0} {85 172 0} 
Flow 33: {85 86 0} {86 173 0} 
Flow 34: {4 1 0} {1 88 0} 
Flow 35: {20 2 0} {2 89 0} 
Flow 35: {4 20 0} Flow 36: {20 3 0} {3 90 0} 
Flow 37: {20 10 0} {10 5 0} Flow 38: {20 9 0} {9 47 0} {47 6 0} Flow 39: {2 7 0} Flow 40: {20 8 0} Flow 41: {9 96 0} 
Flow 42: {10 97 0} 
Flow 43: {2 11 0} Flow 44: {12 99 0} 
Flow 47: {16 103 0} 
Flow 48: {9 18 0} {18 105 0} 
Flow 49: {4 19 0} {19 106 0} 
Flow 50: {20 107 0} 
Flow 52: {29 22 0} {22 109 0} 
Flow 53: {24 111 0} 
Flow 54: {53 25 0} {25 112 0} 
Flow 55: {80 26 0} {26 113 0} 
Flow 56: {28 115 0} 
Flow 58: {80 30 0} {30 117 0} 
Flow 59: {4 33 0} {33 31 0} {31 118 0} 
Flow 60: {33 32 0} {32 119 0} 
Flow 61: {33 34 0} {34 121 0} 
Flow 63: {36 123 0} 
Flow 64: {43 37 0} {37 124 0} 
Flow 68: {41 128 0} 
Flow 69: {43 42 0} {42 129 0} 
Flow 70: {41 44 0} {44 131 0} 
Flow 71: {41 45 0} Flow 72: {32 48 0} {48 135 0} 
Flow 73: {13 49 0} {49 136 0} 
Flow 74: {13 50 0} {50 137 0} 
Flow 77: {53 55 0} {55 142 0} 
Flow 78: {14 56 0} {56 143 0} 
Flow 81: {61 60 0} {60 147 0} 
Flow 84: {66 64 0} {64 151 0} 
Flow 87: {67 154 0} 
Flow 89: {57 70 0} {70 157 0} 
Flow 92: {80 73 0} {73 160 0} 
Flow 93: {83 74 0} {74 161 0} 
Flow 95: {44 76 0} {76 163 0} 
Flow 96: {44 77 0} Flow 97: {78 165 0} 
Flow 98: {6 79 0} Flow 99: {80 167 0} 
Flow 100: {81 168 0} 
Flow 101: {66 82 0} {82 169 0} 
Flow 106: {5 2 0} {2 20 0} {20 4 0} Flow 107: {5 35 0} {35 6 0} Flow 109: {7 8 0} Flow 111: {11 13 0} Flow 116: {6 47 0} {47 41 0} Flow 118: {41 38 0} Flow 121: {41 42 0} Flow 145: {6 1 0} Flow 146: {79 7 0} {7 2 0} Flow 147: {47 9 0} {9 19 0} {19 4 0} Flow 148: {6 35 0} {35 5 0} Flow 150: {6 8 0} Flow 151: {35 11 0} Flow 152: {43 36 0} {36 40 0} {41 43 0} Flow 157: {9 20 0} Flow 158: {36 24 0} Flow 162: {36 28 0} Flow 173: {9 31 0} {31 32 0} Flow 188: {73 70 0} Flow 199: {48 82 0} Flow 204: {8 1 0} Flow 205: {8 7 0} Flow 206: {8 20 0} Flow 207: {2 5 0} Flow 208: {8 6 0} Flow 215: {1 3 0} {3 18 0} Flow 216: {8 19 0} Flow 219: {19 9 0} Flow 229: {7 35 0} Flow 237: {58 44 0} Flow 276: {19 8 0} Flow 277: {9 1 0} Flow 326: {10 1 0} Flow 327: {1 2 0} Flow 328: {10 20 0} Flow 331: {35 7 0} Flow 386: {11 1 0} Flow 387: {11 2 0} Flow 390: {11 35 0} Flow 399: {3 19 0} Flow 414: {41 37 0} Flow 455: {13 40 0} Flow 456: {13 11 0} Flow 457: {40 4 0} Flow 483: {28 37 0} Flow 524: {15 13 0} Flow 535: {15 12 0} Flow 537: {12 16 0} Flow 596: {16 13 0} Flow 604: {16 12 0} Flow 606: {12 15 0} Flow 629: {56 54 0} Flow 632: {16 60 0} Flow 656: {17 12 0} {12 13 0} Flow 685: {17 63 0} {63 16 0} Flow 702: {18 3 0} Flow 705: {18 9 0} Flow 729: {31 34 0} Flow 776: {19 3 0} Flow 801: {33 120 0} 
Flow 903: {21 24 0} {24 40 0} Flow 907: {24 36 0} {36 43 0} {41 47 0} Flow 918: {21 22 0} Flow 921: {22 26 0} Flow 922: {24 28 0} Flow 923: {22 29 0} Flow 924: {22 30 0} Flow 931: {28 38 0} Flow 943: {22 27 0} {27 55 0} Flow 955: {41 46 0} Flow 956: {46 72 0} Flow 961: {44 78 0} Flow 968: {21 23 0} Flow 970: {29 41 0} {43 4 0} Flow 986: {22 21 0} Flow 988: {22 25 0} Flow 990: {22 28 0} Flow 1012: {54 56 0} Flow 1013: {44 58 0} Flow 1014: {44 67 0} {67 59 0} Flow 1022: {70 57 0} Flow 1041: {25 53 0} {53 36 0} Flow 1060: {25 22 0} Flow 1062: {25 54 0} {70 73 0} {73 26 0} Flow 1065: {73 30 0} Flow 1088: {56 60 0} Flow 1089: {60 61 0} Flow 1100: {70 74 0} Flow 1106: {73 80 0} Flow 1109: {74 83 0} Flow 1113: {26 80 0} {80 29 0} Flow 1126: {26 22 0} Flow 1130: {26 83 0} {83 30 0} Flow 1143: {26 73 0} {57 54 0} Flow 1167: {55 53 0} Flow 1183: {27 22 0} Flow 1187: {27 30 0} {30 83 0} {83 26 0} Flow 1224: {30 73 0} Flow 1230: {30 80 0} Flow 1237: {28 40 0} Flow 1242: {28 36 0} Flow 1255: {28 24 0} Flow 1256: {28 22 0} Flow 1378: {31 9 0} Flow 1379: {31 33 0} {33 4 0} Flow 1412: {82 66 0} Flow 1431: {32 33 0} Flow 1435: {32 31 0} Flow 1516: {34 33 0} Flow 1520: {34 31 0} Flow 1552: {34 48 0} Flow 1587: {35 10 0} Flow 1723: {37 43 0} Flow 1727: {37 41 0} Flow 1731: {37 28 0} Flow 1749: {37 42 0} Flow 1783: {38 43 0} Flow 1786: {38 41 0} Flow 1799: {38 28 0} Flow 1816: {38 42 0} Flow 1852: {39 28 0} Flow 2062: {42 43 0} Flow 2067: {42 41 0} Flow 2093: {42 37 0} Flow 2094: {42 38 0} Flow 2194: {67 9 0} Flow 2198: {44 41 0} Flow 2248: {77 46 0} Flow 2263: {45 67 0} Flow 2267: {45 41 0} Flow 2298: {45 76 0} {76 44 0} Flow 2405: {48 34 0} Flow 2430: {48 32 0} Flow 2468: {66 81 0} Flow 2474: {49 13 0} Flow 2546: {50 13 0} Flow 2615: {51 52 0} {52 59 0} {59 58 0} {58 9 0} Flow 2651: {59 67 0} Flow 2780: {55 30 0} Flow 2828: {47 87 0} {87 174 0} 
Flow 2829: {54 53 0} Flow 2850: {54 25 0} Flow 2912: {55 27 0} Flow 2947: {56 14 0} {14 12 0} Flow 3134: {61 14 0} Flow 3148: {60 16 0} Flow 3155: {60 56 0} Flow 3226: {61 62 0} Flow 3235: {62 16 0} Flow 3271: {62 61 0} Flow 3365: {64 66 0} {81 4 0} Flow 3388: {64 65 0} Flow 3402: {65 66 0} Flow 3434: {68 57 0} Flow 3506: {69 57 0} Flow 3600: {71 46 0} {46 58 0} Flow 3616: {46 41 0} Flow 3635: {77 44 0} Flow 3669: {72 9 0} Flow 3687: {72 46 0} Flow 3785: {30 55 0} Flow 3813: {83 80 0} Flow 3848: {74 70 0} Flow 3877: {75 9 0} Flow 3942: {76 45 0} Flow 4079: {78 46 0} Flow 4106: {78 44 0} Flow 4138: {79 6 0} Flow 4238: {84 78 0} Flow 4307: {85 23 0} {23 24 0} Flow 4321: {23 21 0} Flow 4325: {23 28 0} Flow 4366: {86 85 0} Flow 4420: {87 47 0} Time taken running everything: 1 seconds
