networks/rf_174_4492/rf_174_4492-lower.sol
<?xml version = "1.0" encoding="UTF-8" standalone="yes"?>
<CPLEXSolution version="1.2">
 <header
   problemName="networks/rf_174_4492/rf_174_4492-lower.lp"
   solutionName="incumbent"
   solutionIndex="-1"
   objectiveValue="75"
   solutionTypeValue="3"
   solutionTypeString="primal"
   solutionStatusValue="101"
   solutionStatusString="integer optimal solution"
   solutionMethodString="mip"
   primalFeasible="1"
   dualFeasible="1"
   MIPNodes="0"
   MIPIterations="0"
   writeLevel="3"/>
 <quality
   epInt="1.0000000000000001e-05"
   epRHS="9.9999999999999995e-07"
   maxIntInfeas="0"
   maxPrimalInfeas="0"
   maxX="1"
   maxSlack="1"/>
 <variables>
  <variable name="Y(1,4)" index="3" value="1"/>
  <variable name="Y(2,5)" index="166" value="1"/>
  <variable name="Y(3,6)" index="329" value="1"/>
  <variable name="Y(4,7)" index="492" value="1"/>
  <variable name="Y(5,8)" index="655" value="1"/>
  <variable name="Y(6,11)" index="820" value="1"/>
  <variable name="Y(7,13)" index="984" value="1"/>
  <variable name="Y(8,15)" index="1148" value="1"/>
  <variable name="Y(9,21)" index="1316" value="1"/>
  <variable name="Y(10,29)" index="1486" value="1"/>
  <variable name="Y(11,35)" index="1654" value="1"/>
  <variable name="Y(12,38)" index="1819" value="1"/>
  <variable name="Y(13,39)" index="1982" value="1"/>
  <variable name="Y(14,40)" index="2145" value="1"/>
  <variable name="Y(15,45)" index="2312" value="1"/>
  <variable name="Y(16,53)" index="2482" value="1"/>
  <variable name="Y(17,54)" index="2645" value="1"/>
  <variable name="Y(18,58)" index="2811" value="1"/>
  <variable name="Y(19,59)" index="2974" value="1"/>
  <variable name="Y(20,61)" index="3138" value="1"/>
  <variable name="Y(21,62)" index="3301" value="1"/>
  <variable name="Y(22,65)" index="3466" value="1"/>
  <variable name="Y(23,66)" index="3629" value="1"/>
  <variable name="Y(24,68)" index="3793" value="1"/>
  <variable name="Y(25,71)" index="3958" value="1"/>
  <variable name="Y(26,72)" index="4121" value="1"/>
  <variable name="Y(27,75)" index="4286" value="1"/>
  <variable name="Y(28,77)" index="4450" value="1"/>
  <variable name="Y(29,79)" index="4614" value="1"/>
  <variable name="Y(30,83)" index="4780" value="1"/>
  <variable name="Y(31,84)" index="4943" value="1"/>
  <variable name="Y(32,85)" index="5106" value="1"/>
  <variable name="Y(33,86)" index="5269" value="1"/>
  <variable name="Y(34,1)" index="5346" value="1"/>
  <variable name="Y(35,2)" index="5509" value="1"/>
  <variable name="Y(36,3)" index="5672" value="1"/>
  <variable name="Y(41,9)" index="6488" value="1"/>
  <variable name="Y(42,10)" index="6651" value="1"/>
  <variable name="Y(44,12)" index="6977" value="1"/>
  <variable name="Y(47,16)" index="7467" value="1"/>
  <variable name="Y(48,18)" index="7631" value="1"/>
  <variable name="Y(49,19)" index="7794" value="1"/>
  <variable name="Y(50,20)" index="7957" value="1"/>
  <variable name="Y(52,22)" index="8283" value="1"/>
  <variable name="Y(53,24)" index="8447" value="1"/>
  <variable name="Y(54,25)" index="8610" value="1"/>
  <variable name="Y(55,26)" index="8773" value="1"/>
  <variable name="Y(56,28)" index="8937" value="1"/>
  <variable name="Y(58,30)" index="9263" value="1"/>
  <variable name="Y(59,31)" index="9426" value="1"/>
  <variable name="Y(60,32)" index="9589" value="1"/>
  <variable name="Y(61,34)" index="9753" value="1"/>
  <variable name="Y(63,36)" index="10079" value="1"/>
  <variable name="Y(64,37)" index="10242" value="1"/>
  <variable name="Y(68,41)" index="10894" value="1"/>
  <variable name="Y(69,42)" index="11057" value="1"/>
  <variable name="Y(70,44)" index="11221" value="1"/>
  <variable name="Y(72,48)" index="11549" value="1"/>
  <variable name="Y(73,49)" index="11712" value="1"/>
  <variable name="Y(74,50)" index="11875" value="1"/>
  <variable name="Y(77,55)" index="12366" value="1"/>
  <variable name="Y(78,56)" index="12529" value="1"/>
  <variable name="Y(81,60)" index="13019" value="1"/>
  <variable name="Y(84,64)" index="13509" value="1"/>
  <variable name="Y(87,67)" index="13998" value="1"/>
  <variable name="Y(89,70)" index="14325" value="1"/>
  <variable name="Y(92,73)" index="14814" value="1"/>
  <variable name="Y(93,74)" index="14977" value="1"/>
  <variable name="Y(95,76)" index="15303" value="1"/>
  <variable name="Y(97,78)" index="15629" value="1"/>
  <variable name="Y(99,80)" index="15955" value="1"/>
  <variable name="Y(100,81)" index="16118" value="1"/>
  <variable name="Y(101,82)" index="16281" value="1"/>
  <variable name="Y(801,33)" index="129632" value="1"/>
  <variable name="Y(2828,87)" index="458060" value="1"/>
  <variable name="X(1,2,327)" index="728030" value="1"/>
  <variable name="X(1,3,215)" index="732410" value="1"/>
  <variable name="X(1,4,1)" index="736688" value="1"/>
  <variable name="X(1,5,2)" index="741181" value="1"/>
  <variable name="X(1,6,3)" index="745674" value="1"/>
  <variable name="X(1,7,4)" index="750167" value="1"/>
  <variable name="X(1,8,5)" index="754660" value="1"/>
  <variable name="X(1,9,15)" index="759162" value="1"/>
  <variable name="X(1,10,11)" index="763650" value="1"/>
  <variable name="X(1,11,6)" index="768137" value="1"/>
  <variable name="X(1,88,34)" index="772657" value="1"/>
  <variable name="X(2,5,207)" index="777322" value="1"/>
  <variable name="X(2,7,39)" index="781646" value="1"/>
  <variable name="X(2,11,43)" index="786142" value="1"/>
  <variable name="X(2,20,106)" index="790697" value="1"/>
  <variable name="X(2,89,35)" index="795118" value="1"/>
  <variable name="X(3,1,1)" index="799576" value="1"/>
  <variable name="X(3,18,215)" index="804282" value="1"/>
  <variable name="X(3,19,399)" index="808958" value="1"/>
  <variable name="X(3,90,36)" index="813087" value="1"/>
  <variable name="X(4,1,34)" index="817577" value="1"/>
  <variable name="X(4,19,49)" index="822084" value="1"/>
  <variable name="X(4,20,35)" index="826562" value="1"/>
  <variable name="X(4,33,59)" index="831078" value="1"/>
  <variable name="X(4,40,7)" index="835518" value="1"/>
  <variable name="X(4,43,10)" index="840013" value="1"/>
  <variable name="X(4,81,22)" index="844517" value="1"/>
  <variable name="X(4,91,1)" index="848988" value="1"/>
  <variable name="X(5,2,106)" index="853585" value="1"/>
  <variable name="X(5,35,107)" index="858078" value="1"/>
  <variable name="X(5,92,2)" index="862465" value="1"/>
  <variable name="X(6,1,145)" index="867100" value="1"/>
  <variable name="X(6,8,150)" index="871597" value="1"/>
  <variable name="X(6,35,148)" index="876087" value="1"/>
  <variable name="X(6,47,116)" index="880547" value="1"/>
  <variable name="X(6,79,98)" index="885021" value="1"/>
  <variable name="X(6,93,3)" index="889418" value="1"/>
  <variable name="X(7,2,146)" index="894053" value="1"/>
  <variable name="X(7,8,109)" index="898508" value="1"/>
  <variable name="X(7,35,229)" index="903120" value="1"/>
  <variable name="X(7,79,29)" index="907412" value="1"/>
  <variable name="X(7,94,4)" index="911879" value="1"/>
  <variable name="X(8,1,204)" index="916571" value="1"/>
  <variable name="X(8,6,208)" index="921067" value="1"/>
  <variable name="X(8,7,205)" index="925556" value="1"/>
  <variable name="X(8,19,216)" index="930059" value="1"/>
  <variable name="X(8,20,206)" index="934541" value="1"/>
  <variable name="X(8,95,5)" index="938832" value="1"/>
  <variable name="X(9,1,277)" index="943596" value="1"/>
  <variable name="X(9,18,48)" index="947859" value="1"/>
  <variable name="X(9,19,147)" index="952450" value="1"/>
  <variable name="X(9,20,157)" index="956952" value="1"/>
  <variable name="X(9,31,173)" index="961460" value="1"/>
  <variable name="X(9,47,38)" index="965817" value="1"/>
  <variable name="X(9,58,18)" index="970289" value="1"/>
  <variable name="X(9,67,15)" index="974778" value="1"/>
  <variable name="X(9,72,26)" index="979281" value="1"/>
  <variable name="X(9,75,27)" index="983774" value="1"/>
  <variable name="X(9,96,41)" index="988280" value="1"/>
  <variable name="X(10,1,326)" index="993057" value="1"/>
  <variable name="X(10,5,37)" index="997260" value="1"/>
  <variable name="X(10,20,328)" index="1002043" value="1"/>
  <variable name="X(10,35,11)" index="1006218" value="1"/>
  <variable name="X(10,97,42)" index="1010741" value="1"/>
  <variable name="X(11,1,386)" index="1015577" value="1"/>
  <variable name="X(11,2,387)" index="1020070" value="1"/>
  <variable name="X(11,13,111)" index="1024286" value="1"/>
  <variable name="X(11,35,390)" index="1029057" value="1"/>
  <variable name="X(11,98,6)" index="1033165" value="1"/>
  <variable name="X(12,13,656)" index="1038307" value="1"/>
  <variable name="X(12,14,20)" index="1042163" value="1"/>
  <variable name="X(12,15,606)" index="1047241" value="1"/>
  <variable name="X(12,16,537)" index="1051664" value="1"/>
  <variable name="X(12,99,44)" index="1055663" value="1"/>
  <variable name="X(13,11,456)" index="1060567" value="1"/>
  <variable name="X(13,12,20)" index="1064623" value="1"/>
  <variable name="X(13,15,8)" index="1069103" value="1"/>
  <variable name="X(13,16,21)" index="1073608" value="1"/>
  <variable name="X(13,40,455)" index="1078534" value="1"/>
  <variable name="X(13,49,73)" index="1082644" value="1"/>
  <variable name="X(13,50,74)" index="1087137" value="1"/>
  <variable name="X(13,100,7)" index="1091562" value="1"/>
  <variable name="X(14,12,2947)" index="1098994" value="1"/>
  <variable name="X(14,56,78)" index="1100617" value="1"/>
  <variable name="X(14,61,20)" index="1105051" value="1"/>
  <variable name="X(15,12,535)" index="1110058" value="1"/>
  <variable name="X(15,13,524)" index="1114539" value="1"/>
  <variable name="X(15,102,8)" index="1118515" value="1"/>
  <variable name="X(16,12,604)" index="1123603" value="1"/>
  <variable name="X(16,13,596)" index="1128087" value="1"/>
  <variable name="X(16,60,632)" index="1132615" value="1"/>
  <variable name="X(16,62,21)" index="1136496" value="1"/>
  <variable name="X(16,103,47)" index="1141014" value="1"/>
  <variable name="X(17,12,656)" index="1146115" value="1"/>
  <variable name="X(17,63,685)" index="1150636" value="1"/>
  <variable name="X(18,3,702)" index="1155145" value="1"/>
  <variable name="X(18,9,705)" index="1159640" value="1"/>
  <variable name="X(18,105,48)" index="1163475" value="1"/>
  <variable name="X(19,3,776)" index="1168695" value="1"/>
  <variable name="X(19,4,147)" index="1172558" value="1"/>
  <variable name="X(19,8,276)" index="1177179" value="1"/>
  <variable name="X(19,9,219)" index="1181614" value="1"/>
  <variable name="X(19,106,49)" index="1185936" value="1"/>
  <variable name="X(20,2,35)" index="1190414" value="1"/>
  <variable name="X(20,3,36)" index="1194907" value="1"/>
  <variable name="X(20,4,106)" index="1199469" value="1"/>
  <variable name="X(20,8,40)" index="1203895" value="1"/>
  <variable name="X(20,9,38)" index="1208385" value="1"/>
  <variable name="X(20,10,37)" index="1212876" value="1"/>
  <variable name="X(20,107,50)" index="1217381" value="1"/>
  <variable name="X(21,22,918)" index="1222741" value="1"/>
  <variable name="X(21,23,968)" index="1227283" value="1"/>
  <variable name="X(21,24,903)" index="1231710" value="1"/>
  <variable name="X(21,108,9)" index="1235308" value="1"/>
  <variable name="X(22,21,986)" index="1240777" value="1"/>
  <variable name="X(22,25,988)" index="1245271" value="1"/>
  <variable name="X(22,26,921)" index="1249696" value="1"/>
  <variable name="X(22,27,943)" index="1254210" value="1"/>
  <variable name="X(22,28,990)" index="1258749" value="1"/>
  <variable name="X(22,29,923)" index="1263174" value="1"/>
  <variable name="X(22,30,924)" index="1267667" value="1"/>
  <variable name="X(22,109,52)" index="1271287" value="1"/>
  <variable name="X(23,21,4321)" index="1280048" value="1"/>
  <variable name="X(23,24,4307)" index="1284526" value="1"/>
  <variable name="X(23,28,4325)" index="1289036" value="1"/>
  <variable name="X(23,85,32)" index="1289235" value="1"/>
  <variable name="X(24,21,9)" index="1293704" value="1"/>
  <variable name="X(24,28,922)" index="1299109" value="1"/>
  <variable name="X(24,36,907)" index="1303586" value="1"/>
  <variable name="X(24,40,903)" index="1308074" value="1"/>
  <variable name="X(24,111,53)" index="1311716" value="1"/>
  <variable name="X(25,22,1060)" index="1317215" value="1"/>
  <variable name="X(25,53,1041)" index="1321688" value="1"/>
  <variable name="X(25,54,1062)" index="1326201" value="1"/>
  <variable name="X(25,112,54)" index="1329685" value="1"/>
  <variable name="X(26,22,1126)" index="1335249" value="1"/>
  <variable name="X(26,73,1143)" index="1339758" value="1"/>
  <variable name="X(26,80,1113)" index="1344220" value="1"/>
  <variable name="X(26,83,1130)" index="1348729" value="1"/>
  <variable name="X(26,113,55)" index="1352146" value="1"/>
  <variable name="X(27,22,1183)" index="1357766" value="1"/>
  <variable name="X(27,30,1187)" index="1362262" value="1"/>
  <variable name="X(27,55,943)" index="1366510" value="1"/>
  <variable name="X(28,22,1256)" index="1371315" value="1"/>
  <variable name="X(28,23,32)" index="1374583" value="1"/>
  <variable name="X(28,24,1255)" index="1380298" value="1"/>
  <variable name="X(28,36,1242)" index="1384777" value="1"/>
  <variable name="X(28,37,483)" index="1388510" value="1"/>
  <variable name="X(28,38,931)" index="1393450" value="1"/>
  <variable name="X(28,39,13)" index="1397024" value="1"/>
  <variable name="X(28,40,1237)" index="1402740" value="1"/>
  <variable name="X(28,115,56)" index="1406051" value="1"/>
  <variable name="X(29,22,52)" index="1410539" value="1"/>
  <variable name="X(29,41,970)" index="1415949" value="1"/>
  <variable name="X(29,80,30)" index="1419501" value="1"/>
  <variable name="X(29,116,10)" index="1423973" value="1"/>
  <variable name="X(30,55,3785)" index="1432240" value="1"/>
  <variable name="X(30,73,1224)" index="1434171" value="1"/>
  <variable name="X(30,80,1230)" index="1438669" value="1"/>
  <variable name="X(30,83,1187)" index="1443118" value="1"/>
  <variable name="X(30,117,58)" index="1446481" value="1"/>
  <variable name="X(31,9,1378)" index="1452293" value="1"/>
  <variable name="X(31,32,173)" index="1455580" value="1"/>
  <variable name="X(31,33,1379)" index="1461278" value="1"/>
  <variable name="X(31,34,729)" index="1465120" value="1"/>
  <variable name="X(31,118,59)" index="1468942" value="1"/>
  <variable name="X(32,31,1435)" index="1474810" value="1"/>
  <variable name="X(32,33,1431)" index="1479298" value="1"/>
  <variable name="X(32,48,72)" index="1482431" value="1"/>
  <variable name="X(32,119,60)" index="1486911" value="1"/>
  <variable name="X(33,4,1379)" index="1492722" value="1"/>
  <variable name="X(33,31,59)" index="1495894" value="1"/>
  <variable name="X(33,32,60)" index="1500387" value="1"/>
  <variable name="X(33,34,61)" index="1504880" value="1"/>
  <variable name="X(33,120,801)" index="1510112" value="1"/>
  <variable name="X(34,31,1520)" index="1515323" value="1"/>
  <variable name="X(34,33,1516)" index="1519811" value="1"/>
  <variable name="X(34,48,1552)" index="1524339" value="1"/>
  <variable name="X(34,121,61)" index="1527340" value="1"/>
  <variable name="X(35,5,148)" index="1531919" value="1"/>
  <variable name="X(35,6,107)" index="1536370" value="1"/>
  <variable name="X(35,7,331)" index="1541086" value="1"/>
  <variable name="X(35,10,1587)" index="1546834" value="1"/>
  <variable name="X(35,11,151)" index="1549890" value="1"/>
  <variable name="X(35,122,11)" index="1554242" value="1"/>
  <variable name="X(36,24,158)" index="1558881" value="1"/>
  <variable name="X(36,28,162)" index="1563377" value="1"/>
  <variable name="X(36,40,152)" index="1567859" value="1"/>
  <variable name="X(36,43,907)" index="1573106" value="1"/>
  <variable name="X(36,53,16)" index="1576707" value="1"/>
  <variable name="X(36,123,63)" index="1581246" value="1"/>
  <variable name="X(37,28,1731)" index="1587406" value="1"/>
  <variable name="X(37,41,1727)" index="1591894" value="1"/>
  <variable name="X(37,42,1749)" index="1596408" value="1"/>
  <variable name="X(37,43,1723)" index="1600874" value="1"/>
  <variable name="X(37,124,64)" index="1603707" value="1"/>
  <variable name="X(38,28,1799)" index="1609934" value="1"/>
  <variable name="X(38,41,1786)" index="1614413" value="1"/>
  <variable name="X(38,42,1816)" index="1618935" value="1"/>
  <variable name="X(38,43,1783)" index="1623394" value="1"/>
  <variable name="X(38,125,12)" index="1626115" value="1"/>
  <variable name="X(39,28,1852)" index="1632447" value="1"/>
  <variable name="X(39,126,13)" index="1635100" value="1"/>
  <variable name="X(40,4,457)" index="1640036" value="1"/>
  <variable name="X(40,13,7)" index="1644078" value="1"/>
  <variable name="X(40,24,9)" index="1648572" value="1"/>
  <variable name="X(40,28,13)" index="1653068" value="1"/>
  <variable name="X(40,36,16)" index="1657563" value="1"/>
  <variable name="X(40,127,14)" index="1662053" value="1"/>
  <variable name="X(41,29,10)" index="1666541" value="1"/>
  <variable name="X(41,37,414)" index="1671437" value="1"/>
  <variable name="X(41,38,118)" index="1675633" value="1"/>
  <variable name="X(41,42,121)" index="1680128" value="1"/>
  <variable name="X(41,43,152)" index="1684651" value="1"/>
  <variable name="X(41,44,70)" index="1689061" value="1"/>
  <variable name="X(41,45,71)" index="1693554" value="1"/>
  <variable name="X(41,46,955)" index="1698930" value="1"/>
  <variable name="X(41,47,907)" index="1703374" value="1"/>
  <variable name="X(41,128,68)" index="1707027" value="1"/>
  <variable name="X(42,37,2093)" index="1713544" value="1"/>
  <variable name="X(42,38,2094)" index="1718037" value="1"/>
  <variable name="X(42,41,2067)" index="1722502" value="1"/>
  <variable name="X(42,43,2062)" index="1726989" value="1"/>
  <variable name="X(42,129,69)" index="1729488" value="1"/>
  <variable name="X(43,4,970)" index="1734881" value="1"/>
  <variable name="X(43,36,152)" index="1738555" value="1"/>
  <variable name="X(43,37,64)" index="1742959" value="1"/>
  <variable name="X(43,38,12)" index="1747399" value="1"/>
  <variable name="X(43,41,10)" index="1751889" value="1"/>
  <variable name="X(43,42,69)" index="1756440" value="1"/>
  <variable name="X(44,41,2198)" index="1763061" value="1"/>
  <variable name="X(44,58,1013)" index="1766368" value="1"/>
  <variable name="X(44,67,1014)" index="1770861" value="1"/>
  <variable name="X(44,76,95)" index="1774434" value="1"/>
  <variable name="X(44,77,96)" index="1778927" value="1"/>
  <variable name="X(44,78,961)" index="1784284" value="1"/>
  <variable name="X(44,131,70)" index="1787885" value="1"/>
  <variable name="X(45,41,2267)" index="1794574" value="1"/>
  <variable name="X(45,67,2263)" index="1799062" value="1"/>
  <variable name="X(45,76,2298)" index="1803589" value="1"/>
  <variable name="X(45,132,15)" index="1805798" value="1"/>
  <variable name="X(46,41,3616)" index="1813891" value="1"/>
  <variable name="X(46,58,3600)" index="1818367" value="1"/>
  <variable name="X(46,71,25)" index="1819284" value="1"/>
  <variable name="X(46,72,956)" index="1824707" value="1"/>
  <variable name="X(46,77,28)" index="1828271" value="1"/>
  <variable name="X(46,78,31)" index="1832766" value="1"/>
  <variable name="X(47,6,38)" index="1837265" value="1"/>
  <variable name="X(47,9,147)" index="1841866" value="1"/>
  <variable name="X(47,41,116)" index="1846327" value="1"/>
  <variable name="X(47,87,2828)" index="1853531" value="1"/>
  <variable name="X(48,32,2430)" index="1857625" value="1"/>
  <variable name="X(48,34,2405)" index="1862092" value="1"/>
  <variable name="X(48,82,199)" index="1864378" value="1"/>
  <variable name="X(48,135,72)" index="1868743" value="1"/>
  <variable name="X(49,13,2474)" index="1875637" value="1"/>
  <variable name="X(49,136,73)" index="1877728" value="1"/>
  <variable name="X(50,13,2546)" index="1884693" value="1"/>
  <variable name="X(50,137,74)" index="1886713" value="1"/>
  <variable name="X(51,52,2615)" index="1893746" value="1"/>
  <variable name="X(52,59,2615)" index="1898238" value="1"/>
  <variable name="X(53,25,54)" index="1900169" value="1"/>
  <variable name="X(53,36,1041)" index="1905648" value="1"/>
  <variable name="X(53,54,17)" index="1909116" value="1"/>
  <variable name="X(53,55,77)" index="1913668" value="1"/>
  <variable name="X(53,140,16)" index="1918099" value="1"/>
  <variable name="X(54,25,2850)" index="1925425" value="1"/>
  <variable name="X(54,53,2829)" index="1929896" value="1"/>
  <variable name="X(54,56,1012)" index="1932571" value="1"/>
  <variable name="X(54,57,24)" index="1936075" value="1"/>
  <variable name="X(54,141,17)" index="1940560" value="1"/>
  <variable name="X(55,27,2912)" index="1947947" value="1"/>
  <variable name="X(55,30,2780)" index="1952307" value="1"/>
  <variable name="X(55,53,1167)" index="1955186" value="1"/>
  <variable name="X(55,142,77)" index="1958588" value="1"/>
  <variable name="X(56,14,2947)" index="1965950" value="1"/>
  <variable name="X(56,54,629)" index="1968124" value="1"/>
  <variable name="X(56,60,1088)" index="1973075" value="1"/>
  <variable name="X(56,143,78)" index="1976557" value="1"/>
  <variable name="X(57,54,1143)" index="1982114" value="1"/>
  <variable name="X(57,68,24)" index="1985487" value="1"/>
  <variable name="X(57,70,89)" index="1990044" value="1"/>
  <variable name="X(58,9,2615)" index="1997062" value="1"/>
  <variable name="X(58,44,237)" index="1999176" value="1"/>
  <variable name="X(58,46,25)" index="2003456" value="1"/>
  <variable name="X(58,59,19)" index="2007942" value="1"/>
  <variable name="X(58,145,18)" index="2012433" value="1"/>
  <variable name="X(59,58,2615)" index="2019522" value="1"/>
  <variable name="X(59,67,2651)" index="2024050" value="1"/>
  <variable name="X(59,146,19)" index="2025910" value="1"/>
  <variable name="X(60,16,3148)" index="2033531" value="1"/>
  <variable name="X(60,56,3155)" index="2038030" value="1"/>
  <variable name="X(60,61,1089)" index="2040456" value="1"/>
  <variable name="X(60,147,81)" index="2043940" value="1"/>
  <variable name="X(61,14,3134)" index="2051485" value="1"/>
  <variable name="X(61,60,81)" index="2052924" value="1"/>
  <variable name="X(61,62,3226)" index="2060561" value="1"/>
  <variable name="X(61,148,20)" index="2061847" value="1"/>
  <variable name="X(62,16,3235)" index="2069554" value="1"/>
  <variable name="X(62,61,3271)" index="2074082" value="1"/>
  <variable name="X(62,149,21)" index="2075324" value="1"/>
  <variable name="X(63,16,685)" index="2080480" value="1"/>
  <variable name="X(64,65,3388)" index="2087675" value="1"/>
  <variable name="X(64,66,3365)" index="2092144" value="1"/>
  <variable name="X(64,151,84)" index="2093355" value="1"/>
  <variable name="X(65,66,3402)" index="2101165" value="1"/>
  <variable name="X(65,152,22)" index="2102277" value="1"/>
  <variable name="X(66,64,84)" index="2106831" value="1"/>
  <variable name="X(66,65,22)" index="2111261" value="1"/>
  <variable name="X(66,81,2468)" index="2118199" value="1"/>
  <variable name="X(66,82,101)" index="2120324" value="1"/>
  <variable name="X(66,153,23)" index="2124738" value="1"/>
  <variable name="X(67,9,2194)" index="2131401" value="1"/>
  <variable name="X(67,45,15)" index="2133714" value="1"/>
  <variable name="X(67,59,1014)" index="2139205" value="1"/>
  <variable name="X(67,154,87)" index="2142770" value="1"/>
  <variable name="X(68,57,3434)" index="2150609" value="1"/>
  <variable name="X(68,155,24)" index="2151691" value="1"/>
  <variable name="X(69,57,3506)" index="2159665" value="1"/>
  <variable name="X(70,57,1022)" index="2161673" value="1"/>
  <variable name="X(70,73,1062)" index="2166205" value="1"/>
  <variable name="X(70,74,1100)" index="2170735" value="1"/>
  <variable name="X(70,157,89)" index="2174216" value="1"/>
  <variable name="X(71,46,3600)" index="2182219" value="1"/>
  <variable name="X(71,158,25)" index="2183136" value="1"/>
  <variable name="X(72,9,3669)" index="2191272" value="1"/>
  <variable name="X(72,46,3687)" index="2195782" value="1"/>
  <variable name="X(72,159,26)" index="2196613" value="1"/>
  <variable name="X(73,26,1062)" index="2202141" value="1"/>
  <variable name="X(73,30,1065)" index="2206636" value="1"/>
  <variable name="X(73,70,188)" index="2210251" value="1"/>
  <variable name="X(73,80,1106)" index="2215661" value="1"/>
  <variable name="X(73,160,92)" index="2219139" value="1"/>
  <variable name="X(74,70,3848)" index="2227387" value="1"/>
  <variable name="X(74,83,1109)" index="2229140" value="1"/>
  <variable name="X(74,161,93)" index="2232616" value="1"/>
  <variable name="X(75,9,3877)" index="2240892" value="1"/>
  <variable name="X(75,162,27)" index="2241534" value="1"/>
  <variable name="X(76,44,2298)" index="2248297" value="1"/>
  <variable name="X(76,45,3942)" index="2254433" value="1"/>
  <variable name="X(76,163,95)" index="2255078" value="1"/>
  <variable name="X(77,44,3635)" index="2263110" value="1"/>
  <variable name="X(77,46,2248)" index="2266215" value="1"/>
  <variable name="X(77,164,28)" index="2268487" value="1"/>
  <variable name="X(78,44,4106)" index="2277057" value="1"/>
  <variable name="X(78,46,4079)" index="2281522" value="1"/>
  <variable name="X(78,84,31)" index="2281966" value="1"/>
  <variable name="X(78,165,97)" index="2286524" value="1"/>
  <variable name="X(79,6,4138)" index="2295057" value="1"/>
  <variable name="X(79,7,146)" index="2295557" value="1"/>
  <variable name="X(79,166,29)" index="2299932" value="1"/>
  <variable name="X(80,26,55)" index="2304450" value="1"/>
  <variable name="X(80,29,1113)" index="2310000" value="1"/>
  <variable name="X(80,30,58)" index="2313437" value="1"/>
  <variable name="X(80,73,92)" index="2317963" value="1"/>
  <variable name="X(80,83,30)" index="2322393" value="1"/>
  <variable name="X(80,167,99)" index="2326954" value="1"/>
  <variable name="X(81,4,3365)" index="2334712" value="1"/>
  <variable name="X(81,66,22)" index="2335861" value="1"/>
  <variable name="X(81,168,100)" index="2340431" value="1"/>
  <variable name="X(82,66,1412)" index="2346235" value="1"/>
  <variable name="X(82,169,101)" index="2349416" value="1"/>
  <variable name="X(83,26,1187)" index="2354994" value="1"/>
  <variable name="X(83,30,1130)" index="2359429" value="1"/>
  <variable name="X(83,74,93)" index="2362884" value="1"/>
  <variable name="X(83,80,3813)" index="2371096" value="1"/>
  <variable name="X(83,170,30)" index="2371805" value="1"/>
  <variable name="X(84,78,4238)" index="2380505" value="1"/>
  <variable name="X(84,171,31)" index="2380790" value="1"/>
  <variable name="X(85,23,4307)" index="2389558" value="1"/>
  <variable name="X(85,86,33)" index="2389776" value="1"/>
  <variable name="X(85,172,32)" index="2394267" value="1"/>
  <variable name="X(86,85,4366)" index="2403093" value="1"/>
  <variable name="X(86,173,33)" index="2403252" value="1"/>
  <variable name="X(87,47,4420)" index="2412131" value="1"/>
  <variable name="X(87,174,2828)" index="2415031" value="1"/>
 </variables>
</CPLEXSolution>
